1815
52 31 64 56 85 54 75 89 62 58 36 70 50 3 66 23 12 11 6 29 72 86 35 61 98 88 25 7 30 93 21 13 10 38 96 78 63 28 34 22 19 33 74 43 87 39 67 37 9 81 32 24 44 92 91 95 55 18 90 76 46 82 71 41 79 26 42 99 59 65 8 4 60 5 69 49 84 80 68 77 53 20 45 40 2 27 17 57 1 16 14 47 48 97 94 51 15 83 73 
